9
0 69 67 58 5 38 23 23 51 
28 0 65 18 38 79 17 89 9 
63 85 0 81 88 34 9 43 57 
83 49 24 0 82 44 2 60 74 
19 68 61 59 0 41 30 24 100 
42 50 32 35 53 0 18 62 13 
31 11 5 88 26 22 0 91 49 
64 32 47 10 19 42 40 0 2 
67 40 87 20 79 18 96 96 0 
